QBPP_HJ*_45_025_06_5
45 336 1
17 23 12 5 25 21 7 12 8 18 10 8 15 13 11 19 15 41 39 27 30 6 24 35 32 45 31 37 39 41 49 50 41 21 1 13 23 27 38 10 39 5 14 9 2
    0    0    0    0    0    0    0    0   27    9    0    0    0    0   50    0    0    0    0   20  -50   27    0    0    0  -19    0    0    0    0    0    0    0    0    0    0    0    0    0    0    0   32    0    0    0
    0    0    0    0    0    0    0    0    0    0    0    0    0    0    0    0    0    0    0    0    0    0    0    0    0    8    0  -31    0    4    0    0    0    0  -22  -25  -24    0    0    0    0    0  -49    0    0
    0    0    0    0  -14    0    0    0    0    0  -27    0    0    0    0    0   49    0  -28    0    0    0    0    0    0    0    0    0    0    0    0   37   34    0    0    0    0    0    0    0    0    0    0    0    0
    0    0    0    0    0    0   -4    0    0    0    0    0    0    0    0    0   48    0    0    0    0  -15   13    0    0    0    0   38   34    0    0   44    0    0    0    0    0    0    0    0  -50   27    0    0   36
    0    0  -14    0    0    0   26    0    0    0    0    0    0    0    0  -10    0    0    0    0    0    9  -50  -22   36  -36  -42    0    0    0    0   32   12    0  -11    0    0    0   -5    0  -20   25    0    0    1
    0    0    0    0    0    0    0  -49    0    0    0    0  -25   34    0   35    0    0    0    0    0  -16    0    0    0    0    0    0    0    0    0    0   44   21    0    0    0    0    0    0    0    0    0   38    0
    0    0    0   -4   26    0    0    0    0    0    0    0    0   26    0   12  -13    0  -48    0    0    0  -15    0   34    0  -19    0   14    0    0    0  -28    0    0    0    0    0   49  -22    0    0   -1    0    1
    0    0    0    0    0  -49    0    0    0    0    0    0    0    0  -32  -43   47    0    0  -17    0    0  -38    0    0    0    0    0    0    0    0    0    0    0    0    0   27    0    0    0    0    0    0    0    0
   27    0    0    0    0    0    0    0    0    0   18    0    0   20    0    0    0    0  -17    5    0    0    0    0    0    0    0  -11    0  -18    0    0    0    3    0    9    0    0    0    0   19   23    0    0    0
    9    0    0    0    0    0    0    0    0    0   29    0    0    0    0    5    0    0    0    0    0    0   23    0    0    0    0    0   13  -38    0  -19    0    0    0    0  -23    0    0    0  -38    0  -38    0  -42
    0    0  -27    0    0    0    0    0   18   29    0  -29    0  -50    0  -18    0    0    0    0    0    0    0    0    0    0    0    0    0   39    0   12    0  -22   -4    0    0    4    0  -16    0    0    0   -5    0
    0    0    0    0    0    0    0    0    0    0  -29    0    0    0    0    0    0   20    0    0    0    0    0    0    0    4    0    0    0    0    0    0    0    0    0    0    0    0   -9    0    0  -28    0    0   11
    0    0    0    0    0  -25    0    0    0    0    0    0    0    0    0    0    0    0    0  -16  -10    0    0    0   16   13    0    0    0    0    0  -14    0   37    0  -43    0   11    0    0  -33    0    0   16    0
    0    0    0    0    0   34   26    0   20    0  -50    0    0    0    0    0   12    0    0    2    0    0    0    0    0    0    0    0    0    0    0  -16   23  -18  -17    0    0   21    0    0    0    0   30    0    0
   50    0    0    0    0    0    0  -32    0    0    0    0    0    0    0    0    0    0    0    0    0    0    0    0    0    0    0    0    0    0   44    0  -36   42  -39    0    0    0  -16    0    0    0  -28    0    5
    0    0    0    0  -10   35   12  -43    0    5  -18    0    0    0    0    0    0  -29    0    0    0    0    0   42   36    0    0    0    0    0    0    0    0    0    0    0  -25    0    0    0    0    0    0   21    0
    0    0   49   48    0    0  -13   47    0    0    0    0    0   12    0    0    0    0  -19    0   47    0    0    0  -33    0   21    0    0    0    0    0    0   45    0    0    0   16    0   46   -1   17    0   25    0
    0    0    0    0    0    0    0    0    0    0    0   20    0    0    0  -29    0    0    0    3    0    0    0   31    0  -29  -11   -7    0    0    0  -45    0    0   43    0    0    0    0    0    0  -13    0    0    0
    0    0  -28    0    0    0  -48    0  -17    0    0    0    0    0    0    0  -19    0    0    0   -9  -16    0    0    0    0    0   47  -16    0    0    0    0    0    0    0   48    0    0    0   12    0    0    0    0
   20    0    0    0    0    0    0  -17    5    0    0    0  -16    2    0    0    0    3    0    0  -38   13    0    0    0   40    0    2   45    0    0    0    0    0    0  -15    0    0   37    0   44    0    0    0  -46
  -50    0    0    0    0    0    0    0    0    0    0    0  -10    0    0    0   47    0   -9  -38    0    0    0    0   19    9    0  -42    0    0    0    0    0    0    0   42    0    0  -17    0    0    0    0   42    0
   27    0    0  -15    9  -16    0    0    0    0    0    0    0    0    0    0    0    0  -16   13    0    0   10    4    0    0  -32  -21    0    0    0    0    0    0    0  -17    0    0    0    0    0    0    0    0    0
    0    0    0   13  -50    0  -15  -38    0   23    0    0    0    0    0    0    0    0    0    0    0   10    0    0    0   42    0    0    0    0    0    0    0    0    0    4    0    0    0    0    0    0   42    0    0
    0    0    0    0  -22    0    0    0    0    0    0    0    0    0    0   42    0   31    0    0    0    4    0    0    0    0    0    0    0    0    0    0    0    0    0  -45   19    0    0    0    0    0    0    0   45
    0    0    0    0   36    0   34    0    0    0    0    0   16    0    0   36  -33    0    0    0   19    0    0    0    0    0    0    0    0    0    0  -13  -21    0    0  -23    0    2    0    0    0    0    0    0    0
  -19    8    0    0  -36    0    0    0    0    0    0    4   13    0    0    0    0  -29    0   40    9    0   42    0    0    0    0  -11  -34   40  -28    0    0    0    0    0    0    0    0    0    0  -49    0    0    0
    0    0    0    0  -42    0  -19    0    0    0    0    0    0    0    0    0   21  -11    0    0    0  -32    0    0    0    0    0   24  -23    0    0    0    0    0    0    0    0    0   -5    0    0   -4    0    0    0
    0  -31    0   38    0    0    0    0  -11    0    0    0    0    0    0    0    0   -7   47    2  -42  -21    0    0    0  -11   24    0    0    0    0   23   34    0    0   43    0    0    0  -24    0    5    0  -40    0
    0    0    0   34    0    0   14    0    0   13    0    0    0    0    0    0    0    0  -16   45    0    0    0    0    0  -34  -23    0    0    0    0    0   15    0    0  -13    0    0    0    0  -12  -45    0  -41    0
    0    4    0    0    0    0    0    0  -18  -38   39    0    0    0    0    0    0    0    0    0    0    0    0    0    0   40    0    0    0    0    0    0    0   11   18    0    0   22    0    0    0    0    0    0    0
    0    0    0    0    0    0    0    0    0    0    0    0    0    0   44    0    0    0    0    0    0    0    0    0    0  -28    0    0    0    0    0    0    0    0    0    0    0    0    0    0    0    0    0    0    0
    0    0   37   44   32    0    0    0    0  -19   12    0  -14  -16    0    0    0  -45    0    0    0    0    0    0  -13    0    0   23    0    0    0    0   10    0    0  -22  -13    0    0    8    0    0    0    0  -42
    0    0   34    0   12   44  -28    0    0    0    0    0    0   23  -36    0    0    0    0    0    0    0    0    0  -21    0    0   34   15    0    0   10    0    0    0    0   14   29    0    0    0    0    0    0   23
    0    0    0    0    0   21    0    0    3    0  -22    0   37  -18   42    0   45    0    0    0    0    0    0    0    0    0    0    0    0   11    0    0    0    0  -19    0    0  -38    0    0  -38   10    0  -19  -45
    0  -22    0    0  -11    0    0    0    0    0   -4    0    0  -17  -39    0    0   43    0    0    0    0    0    0    0    0    0    0    0   18    0    0    0  -19    0    0    0    0    0  -26    0    0  -32  -49    0
    0  -25    0    0    0    0    0    0    9    0    0    0  -43    0    0    0    0    0    0  -15   42  -17    4  -45  -23    0    0   43  -13    0    0  -22    0    0    0    0    0    0    0    0  -35    0    0    0    0
    0  -24    0    0    0    0    0   27    0  -23    0    0    0    0    0  -25    0    0   48    0    0    0    0   19    0    0    0    0    0    0    0  -13   14    0    0    0    0    0    0    0  -35    0    0  -14    0
    0    0    0    0    0    0    0    0    0    0    4    0   11   21    0    0   16    0    0    0    0    0    0    0    2    0    0    0    0   22    0    0   29  -38    0    0    0    0    0    0    0    0    0    0    2
    0    0    0    0   -5    0   49    0    0    0    0   -9    0    0  -16    0    0    0    0   37  -17    0    0    0    0    0   -5    0    0    0    0    0    0    0    0    0    0    0    0    0   13    0    0    0    0
    0    0    0    0    0    0  -22    0    0    0  -16    0    0    0    0    0   46    0    0    0    0    0    0    0    0    0    0  -24    0    0    0    8    0    0  -26    0    0    0    0    0   41    0    0    0    0
    0    0    0  -50  -20    0    0    0   19  -38    0    0  -33    0    0    0   -1    0   12   44    0    0    0    0    0    0    0    0  -12    0    0    0    0  -38    0  -35  -35    0   13   41    0    0    0    0    0
   32    0    0   27   25    0    0    0   23    0    0  -28    0    0    0    0   17  -13    0    0    0    0    0    0    0  -49   -4    5  -45    0    0    0    0   10    0    0    0    0    0    0    0    0    0    0   28
    0  -49    0    0    0    0   -1    0    0  -38    0    0    0   30  -28    0    0    0    0    0    0    0   42    0    0    0    0    0    0    0    0    0    0    0  -32    0    0    0    0    0    0    0    0    0    0
    0    0    0    0    0   38    0    0    0    0   -5    0   16    0    0   21   25    0    0    0   42    0    0    0    0    0    0  -40  -41    0    0    0    0  -19  -49    0  -14    0    0    0    0    0    0    0   20
    0    0    0   36    1    0    1    0    0  -42    0   11    0    0    5    0    0    0    0  -46    0    0    0   45    0    0    0    0    0    0    0  -42   23  -45    0    0    0    2    0    0    0   28    0   20    0
